
Gurobi 9.5.1 (win64) logging started Thu Nov  9 18:13:47 2023

Set parameter LogFile to value "consol_info_9"

Gurobi 9.5.1 (win64) logging started Sat Nov 11 13:14:44 2023

Set parameter LogFile to value "consol_info_9"
